language Essence 1.3

letting 
pain be 
[ 
  [ tuple (2, [ [(4, 10), (5, 11)],[(4, 10), (5, 11)] ]), 
    tuple (2,[ [(4, 10), (5, 11)],[(4, 10), (5, 11)] ])  ],   
  [ tuple (2, [ [(4, 10), (5, 11)],[(4, 10), (5, 11)] ]), 
    tuple (2, [ [(4, 10), (5, 11)],[(4, 10), (5, 11)] ])  ] 
]
